c	Created in graph generator tool by Shahar Bardugo & Dorin Matzrafi
c
p	sp 5 20
c	graph contains 5 nodes and 20 arcs
c
a	1	2	138
a	2	1	60
a	1	3	9
a	1	4	54
a	1	5	37
a	2	3	124
a	2	4	48
a	2	5	154
a	3	1	81
a	3	2	100
a	3	4	141
a	3	5	138
a	4	2	188
a	4	3	135
a	4	5	175
a	5	4	36
a	4	1	136
a	5	1	17
a	5	2	140
a	5	3	181
